WARNING: for repeatability, setting FPU to use double precision
============================[ Problem Statistics ]=============================
|                                                                             |
|  Number of variables:            50                                         |
|  Number of clauses:             218                                         |
|  Parse time:                   0.00 s                                       |
|                                                                             |
============================[ Search Statistics ]==============================
| Conflicts |          ORIGINAL         |          LEARNT          | Progress |
|           |    Vars  Clauses Literals |    Limit  Clauses Lit/Cl |          |
===============================================================================
===============================================================================
restarts              : 1
conflicts             : 61             (333333 /sec)
decisions             : 82             (0.00 % random) (448087 /sec)
propagations          : 890            (4863388 /sec)
conflict literals     : 261            (9.69 % deleted)
Memory used           : 20.00 MB
CPU time              : 0.000183 s

SATISFIABLE
